smt/acc-fold/bench/smt/append_sll_cll_slk-8.smt
(set-logic QF_S)

(declare-sort node 0)
(declare-fun val () (Field node int))
(declare-fun next () (Field node node))

(define-fun lseg ((?in node) (?p node))
Space (tospace
(or
(= ?in ?p)
(exists ((?p_23 node)) (tobool (ssep (pto ?in (sref (ref val ?Anon_13) (ref next ?q) )) (lseg ?q ?p_23))))
)))

(define-fun ll ((?in node))
Space (tospace
(or
(= ?in nil)
(and 
(tobool (ssep 
(pto ?in (sref (ref val ?Anon_12) (ref next ?q) ))
(ll ?q)
) )
))))

(define-fun clist ((?in node))
Space (tospace
(exists ((?self_22 node)) (tobool (ssep (pto ?in (sref (ref val ?Anon_14) (ref next ?p) )) (lseg ?p ?self_22))))
))



















(declare-fun y () node)
(declare-fun xprm () node)
(declare-fun x () node)
(declare-fun v_bool_20_1003prm () boolean)
(declare-fun next_25_1048 () node)
(declare-fun q_1030 () node)
(declare-fun Anon_1029 () int)
(declare-fun yprm () node)


(assert 
(and 
(distinct x nil)
(= yprm y)
(= xprm x)
(= q_1030 nil)
(= q_1030 nil)
(= next_25_1048 q_1030)
(tobool (ssep 
(ll q_1030)
(pto xprm (sref (ref val Anon_1029) (ref next yprm) ))
emp
) )
)
)

(assert (not 
(exists ((y_54 node)(Anon_1058 int)(q_1059 node)) (tobool (ssep (lseg x y_54) (ll q_1030))))

))

(check-sat)
