smt/acc-fold/bench/smt2/append_sll_cll_slk-8.smt2
(set-logic QF_S)

(declare-sort node 0)
(declare-fun val () (Field node Int))
(declare-fun next () (Field node node))

(define-fun lseg ((?in node) (?p node))
Space (tospace
(or
(and 
(= ?in ?p)

)(exists ((?p_24 node)(?v_22 Int)(?q_23 node))(and 
(= ?p_24 ?p)
(tobool (ssep 
(pto ?in (sref (ref val ?v_22) (ref next ?q_23) ))
(lseg ?q_23 ?p_24)
) )
)))))

(define-fun ll ((?in node))
Space (tospace
(or
(and 
(= ?in nil)

)(exists ((?v_25 Int)(?q_26 node))(and 
(tobool (ssep 
(pto ?in (sref (ref val ?v_25) (ref next ?q_26) ))
(ll ?q_26)
) )
)))))

(define-fun clist ((?in node))
Space (tospace
(exists ((?self_21 node)(?v_19 Int)(?p_20 node))(and 
(= ?self_21 ?in)
(tobool (ssep 
(pto ?in (sref (ref val ?v_19) (ref next ?p_20) ))
(lseg ?p_20 ?self_21)
) )
))))





















(declare-fun xprm () node)
(declare-fun yprm () Int)
(declare-fun y () Int)
(declare-fun x () node)
(declare-fun v_bool_22_1006prm () boolean)
(declare-fun v_1032 () Int)
(declare-fun q_1033 () node)


(assert 
(and 
(distinct x nil)
(= yprm y)
(= xprm x)
(= q_1033 nil)
other(= q_1033 nil)
other(tobool (ssep 
(ll q_1033)
(pto xprm (sref (ref val v_1032) (ref next q_1033) ))
emp
) )
)
)

(assert (not 
(and 
(distinct x nil)
(= yprm y)
(= xprm x)
(= q_1033 nil)
other(= q_1033 nil)
other(= val_27_1004prm v_1032)
(= next_27_1005prm q_1033)
(tobool (ssep 
(pto xprm (sref (ref val val_27_1004prm) (ref next next_27_1005prm) ))
(ll q_1033)
emp
) )
)
))

(check-sat)